
******************************************************************************
This program contains Ipopt, a library for large-scale nonlinear optimization.
 Ipopt is released as open source code under the Eclipse Public License (EPL).
         For more information visit http://projects.coin-or.org/Ipopt

This version of Ipopt was compiled from source code available at
    https://github.com/IDAES/Ipopt as part of the Institute for the Design of
    Advanced Energy Systems Process Systems Engineering Framework (IDAES PSE
    Framework) Copyright (c) 2018-2019. See https://github.com/IDAES/idaes-pse.

This version of Ipopt was compiled using HSL, a collection of Fortran codes
    for large-scale scientific computation.  All technical papers, sales and
    publicity material resulting from use of the HSL codes within IPOPT must
    contain the following acknowledgement:
        HSL, a collection of Fortran codes for large-scale scientific
        computation. See http://www.hsl.rl.ac.uk.
******************************************************************************

This is Ipopt version 3.13.2, running with linear solver ma27.

Number of nonzeros in equality constraint Jacobian...:      958
Number of nonzeros in inequality constraint Jacobian.:        0
Number of nonzeros in Lagrangian Hessian.............:      832

Total number of variables............................:      416
                     variables with only lower bounds:      128
                variables with lower and upper bounds:      224
                     variables with only upper bounds:        0
Total number of equality constraints.................:      415
Total number of inequality constraints...............:        0
        inequality constraints with only lower bounds:        0
   inequality constraints with lower and upper bounds:        0
        inequality constraints with only upper bounds:        0

iter    objective    inf_pr   inf_du lg(mu)  ||d||  lg(rg) alpha_du alpha_pr  ls
   0  0.0000000e+00 5.47e-01 5.55e-16  -1.0 0.00e+00    -  0.00e+00 0.00e+00   0
   1  4.9872952e-01 4.82e+00 1.48e+05  -1.0 1.20e+05    -  4.19e-01 4.49e-01h  1
   2  8.8286802e-01 3.19e+00 1.09e+05  -1.0 5.32e+04    -  8.63e-01 2.64e-01h  1
   3  9.0220780e-01 3.13e+00 1.07e+05  -1.0 1.03e+05    -  8.87e-01 1.64e-02h  1
   4  3.7321261e+00 4.27e-01 8.07e+04  -1.0 1.16e+05    -  3.96e-01 7.97e-01h  1
   5  3.8021449e+00 4.10e-01 7.76e+04  -1.0 4.21e+04    -  2.97e-02 3.87e-02h  1
   6  6.5456947e+00 1.34e-01 1.17e+03  -1.0 5.75e+04    -  3.86e-03 9.90e-01h  1
   7  6.6607214e+00 1.77e-02 7.85e+02  -1.0 2.69e+03    -  9.29e-01 9.90e-01h  1
   8  6.6740276e+00 6.48e-04 1.85e+01  -1.0 3.02e+02    -  9.90e-01 9.90e-01h  1
   9  6.7712398e+00 3.10e-05 2.00e+03  -1.0 2.17e+03    -  9.90e-01 9.90e-01h  1
iter    objective    inf_pr   inf_du lg(mu)  ||d||  lg(rg) alpha_du alpha_pr  ls
  10  6.6549808e+00 2.00e-05 4.39e+06  -3.8 3.34e+03    -  9.99e-01 7.72e-01f  1
  11  6.6552314e+00 4.49e-09 1.34e+04  -3.8 8.21e+00    -  1.00e+00 1.00e+00h  1
  12  6.6552210e+00 4.74e-11 8.49e+07  -3.8 2.32e-01    -  1.00e+00 1.00e+00h  1
In iteration 12, 32 Slacks too small, adjusting variable bounds
  13  6.6552210e+00 3.32e-11 5.65e+11  -3.8 3.93e-05    -  1.00e+00 1.00e+00h  1
  14  6.6552210e+00 2.27e-11 9.11e-02  -3.8 9.23e-08    -  1.00e+00 1.00e+00h  1
  15  6.6550705e+00 2.50e-11 3.09e+08  -9.0 3.36e+00    -  1.00e+00 9.99e-01F  1
  16  6.6550705e+00 1.31e-11 6.57e-08  -9.0 2.03e-05    -  1.00e+00 1.00e+00h  1

Number of Iterations....: 16

                                   (scaled)                 (unscaled)
Objective...............:   6.6550704992240268e+00    6.6550704992240268e+00
Dual infeasibility......:   6.5658241510391235e-08    6.5658241510391235e-08
Constraint violation....:   1.3124168418698900e-11    1.3124168418698900e-11
Complementarity.........:   9.0909093459901793e-10    9.0909093459901793e-10
Overall NLP error.......:   2.9780940360363211e-11    6.5658241510391235e-08


Number of objective function evaluations             = 18
Number of objective gradient evaluations             = 17
Number of equality constraint evaluations            = 18
Number of inequality constraint evaluations          = 0
Number of equality constraint Jacobian evaluations   = 17
Number of inequality constraint Jacobian evaluations = 0
Number of Lagrangian Hessian evaluations             = 16
Total CPU secs in IPOPT (w/o function evaluations)   =      0.034
Total CPU secs in NLP function evaluations           =      0.330

EXIT: Optimal Solution Found.
